% Generated by MiniZinc 2.9.3
% Solver library: /home/icwmmarijnisse/Pumpkin/minizinc/lib
% Command line invocation: minizinc --compile --fzn ./instance.fzn --ozn ./instance.ozn --solver pumpkin ../../../../benchmarks/models/tsp/instances/tsp.mzn ../../../../benchmarks/models/tsp/instances/TSP_N20_2.dzn 

predicate pumpkin_circuit(array [int] of var int: x);
array [1..20] of int: X_INTRODUCED_38_ = [0,569,777,247,708,488,662,729,503,459,812,18,96,302,227,415,709,250,314,680];
array [1..20] of int: X_INTRODUCED_40_ = [569,0,596,378,485,567,544,353,436,764,564,339,361,720,465,278,314,258,237,124];
array [1..20] of int: X_INTRODUCED_42_ = [777,596,0,739,198,324,123,761,549,974,781,707,190,197,222,757,496,284,742,604];
array [1..20] of int: X_INTRODUCED_44_ = [247,378,739,0,779,538,612,290,103,853,199,304,233,370,184,310,15,726,547,130];
array [1..20] of int: X_INTRODUCED_46_ = [708,485,198,779,0,281,47,998,56,567,300,715,967,130,654,890,771,503,106,894];
array [1..20] of int: X_INTRODUCED_48_ = [488,567,324,538,281,0,13,588,292,481,491,452,349,189,989,53,259,964,883,490];
array [1..20] of int: X_INTRODUCED_50_ = [662,544,123,612,47,13,0,117,842,67,411,504,76,591,645,703,55,156,153,831];
array [1..20] of int: X_INTRODUCED_52_ = [729,353,761,290,998,588,117,0,577,972,312,88,255,122,572,783,427,621,611,810];
array [1..20] of int: X_INTRODUCED_54_ = [503,436,549,103,56,292,842,577,0,634,232,795,536,390,462,931,454,305,881,603];
array [1..20] of int: X_INTRODUCED_56_ = [459,764,974,853,567,481,67,972,634,0,440,313,583,636,62,625,984,758,102,971];
array [1..20] of int: X_INTRODUCED_58_ = [812,564,781,199,300,491,411,312,232,440,0,782,213,641,217,271,677,84,161,246];
array [1..20] of int: X_INTRODUCED_60_ = [18,339,707,304,715,452,504,88,795,313,782,0,178,566,77,161,3,419,462,706];
array [1..20] of int: X_INTRODUCED_62_ = [96,361,190,233,967,349,76,255,536,583,213,178,0,609,482,299,34,238,296,724];
array [1..20] of int: X_INTRODUCED_64_ = [302,720,197,370,130,189,591,122,390,636,641,566,609,0,290,720,881,465,73,704];
array [1..20] of int: X_INTRODUCED_66_ = [227,465,222,184,654,989,645,572,462,62,217,77,482,290,0,240,947,271,807,811];
array [1..20] of int: X_INTRODUCED_68_ = [415,278,757,310,890,53,703,783,931,625,271,161,299,720,240,0,641,604,678,824];
array [1..20] of int: X_INTRODUCED_70_ = [709,314,496,15,771,259,55,427,454,984,677,3,34,881,947,641,0,957,203,436];
array [1..20] of int: X_INTRODUCED_72_ = [250,258,284,726,503,964,156,621,305,758,84,419,238,465,271,604,957,0,118,558];
array [1..20] of int: X_INTRODUCED_74_ = [314,237,742,547,106,883,153,611,881,102,161,462,296,73,807,678,203,118,0,231];
array [1..20] of int: X_INTRODUCED_76_ = [680,124,604,130,894,490,831,810,603,971,246,706,724,704,811,824,436,558,231,0];
array [1..21] of int: X_INTRODUCED_81_ = [1,-1,-1,-1,-1,-1,-1,-1,-1,-1,-1,-1,-1,-1,-1,-1,-1,-1,-1,-1,-1];
var 1..20: X_INTRODUCED_16_;
var 1..20: X_INTRODUCED_17_;
var 1..20: X_INTRODUCED_18_;
var 1..20: X_INTRODUCED_19_;
var 1..20: X_INTRODUCED_20_;
var 1..20: X_INTRODUCED_21_;
var 1..20: X_INTRODUCED_22_;
var 1..20: X_INTRODUCED_23_;
var 1..20: X_INTRODUCED_24_;
var 1..20: X_INTRODUCED_25_;
var 1..20: X_INTRODUCED_26_;
var 1..20: X_INTRODUCED_27_;
var 1..20: X_INTRODUCED_28_;
var 1..20: X_INTRODUCED_29_;
var 1..20: X_INTRODUCED_30_;
var 1..20: X_INTRODUCED_31_;
var 1..20: X_INTRODUCED_32_;
var 1..20: X_INTRODUCED_33_;
var 1..20: X_INTRODUCED_34_;
var 1..20: X_INTRODUCED_35_;
var 0..18322: Objective:: output_var:: is_defined_var;
var 0..812: X_INTRODUCED_39_ ::var_is_introduced :: is_defined_var;
var 0..764: X_INTRODUCED_41_ ::var_is_introduced :: is_defined_var;
var 0..974: X_INTRODUCED_43_ ::var_is_introduced :: is_defined_var;
var 0..853: X_INTRODUCED_45_ ::var_is_introduced :: is_defined_var;
var 0..998: X_INTRODUCED_47_ ::var_is_introduced :: is_defined_var;
var 0..989: X_INTRODUCED_49_ ::var_is_introduced :: is_defined_var;
var 0..842: X_INTRODUCED_51_ ::var_is_introduced :: is_defined_var;
var 0..998: X_INTRODUCED_53_ ::var_is_introduced :: is_defined_var;
var 0..931: X_INTRODUCED_55_ ::var_is_introduced :: is_defined_var;
var 0..984: X_INTRODUCED_57_ ::var_is_introduced :: is_defined_var;
var 0..812: X_INTRODUCED_59_ ::var_is_introduced :: is_defined_var;
var 0..795: X_INTRODUCED_61_ ::var_is_introduced :: is_defined_var;
var 0..967: X_INTRODUCED_63_ ::var_is_introduced :: is_defined_var;
var 0..881: X_INTRODUCED_65_ ::var_is_introduced :: is_defined_var;
var 0..989: X_INTRODUCED_67_ ::var_is_introduced :: is_defined_var;
var 0..931: X_INTRODUCED_69_ ::var_is_introduced :: is_defined_var;
var 0..984: X_INTRODUCED_71_ ::var_is_introduced :: is_defined_var;
var 0..964: X_INTRODUCED_73_ ::var_is_introduced :: is_defined_var;
var 0..883: X_INTRODUCED_75_ ::var_is_introduced :: is_defined_var;
var 0..971: X_INTRODUCED_77_ ::var_is_introduced :: is_defined_var;
array [1..20] of var int: Successor:: output_array([1..20]) = [X_INTRODUCED_16_,X_INTRODUCED_17_,X_INTRODUCED_18_,X_INTRODUCED_19_,X_INTRODUCED_20_,X_INTRODUCED_21_,X_INTRODUCED_22_,X_INTRODUCED_23_,X_INTRODUCED_24_,X_INTRODUCED_25_,X_INTRODUCED_26_,X_INTRODUCED_27_,X_INTRODUCED_28_,X_INTRODUCED_29_,X_INTRODUCED_30_,X_INTRODUCED_31_,X_INTRODUCED_32_,X_INTRODUCED_33_,X_INTRODUCED_34_,X_INTRODUCED_35_];
array [1..21] of var int: X_INTRODUCED_80_ ::var_is_introduced  = [Objective,X_INTRODUCED_39_,X_INTRODUCED_41_,X_INTRODUCED_43_,X_INTRODUCED_45_,X_INTRODUCED_47_,X_INTRODUCED_49_,X_INTRODUCED_51_,X_INTRODUCED_53_,X_INTRODUCED_55_,X_INTRODUCED_57_,X_INTRODUCED_59_,X_INTRODUCED_61_,X_INTRODUCED_63_,X_INTRODUCED_65_,X_INTRODUCED_67_,X_INTRODUCED_69_,X_INTRODUCED_71_,X_INTRODUCED_73_,X_INTRODUCED_75_,X_INTRODUCED_77_];
constraint pumpkin_circuit(Successor);
constraint array_int_element(X_INTRODUCED_16_,X_INTRODUCED_38_,X_INTRODUCED_39_):: defines_var(X_INTRODUCED_39_);
constraint array_int_element(X_INTRODUCED_17_,X_INTRODUCED_40_,X_INTRODUCED_41_):: defines_var(X_INTRODUCED_41_);
constraint array_int_element(X_INTRODUCED_18_,X_INTRODUCED_42_,X_INTRODUCED_43_):: defines_var(X_INTRODUCED_43_);
constraint array_int_element(X_INTRODUCED_19_,X_INTRODUCED_44_,X_INTRODUCED_45_):: defines_var(X_INTRODUCED_45_);
constraint array_int_element(X_INTRODUCED_20_,X_INTRODUCED_46_,X_INTRODUCED_47_):: defines_var(X_INTRODUCED_47_);
constraint array_int_element(X_INTRODUCED_21_,X_INTRODUCED_48_,X_INTRODUCED_49_):: defines_var(X_INTRODUCED_49_);
constraint array_int_element(X_INTRODUCED_22_,X_INTRODUCED_50_,X_INTRODUCED_51_):: defines_var(X_INTRODUCED_51_);
constraint array_int_element(X_INTRODUCED_23_,X_INTRODUCED_52_,X_INTRODUCED_53_):: defines_var(X_INTRODUCED_53_);
constraint array_int_element(X_INTRODUCED_24_,X_INTRODUCED_54_,X_INTRODUCED_55_):: defines_var(X_INTRODUCED_55_);
constraint array_int_element(X_INTRODUCED_25_,X_INTRODUCED_56_,X_INTRODUCED_57_):: defines_var(X_INTRODUCED_57_);
constraint array_int_element(X_INTRODUCED_26_,X_INTRODUCED_58_,X_INTRODUCED_59_):: defines_var(X_INTRODUCED_59_);
constraint array_int_element(X_INTRODUCED_27_,X_INTRODUCED_60_,X_INTRODUCED_61_):: defines_var(X_INTRODUCED_61_);
constraint array_int_element(X_INTRODUCED_28_,X_INTRODUCED_62_,X_INTRODUCED_63_):: defines_var(X_INTRODUCED_63_);
constraint array_int_element(X_INTRODUCED_29_,X_INTRODUCED_64_,X_INTRODUCED_65_):: defines_var(X_INTRODUCED_65_);
constraint array_int_element(X_INTRODUCED_30_,X_INTRODUCED_66_,X_INTRODUCED_67_):: defines_var(X_INTRODUCED_67_);
constraint array_int_element(X_INTRODUCED_31_,X_INTRODUCED_68_,X_INTRODUCED_69_):: defines_var(X_INTRODUCED_69_);
constraint array_int_element(X_INTRODUCED_32_,X_INTRODUCED_70_,X_INTRODUCED_71_):: defines_var(X_INTRODUCED_71_);
constraint array_int_element(X_INTRODUCED_33_,X_INTRODUCED_72_,X_INTRODUCED_73_):: defines_var(X_INTRODUCED_73_);
constraint array_int_element(X_INTRODUCED_34_,X_INTRODUCED_74_,X_INTRODUCED_75_):: defines_var(X_INTRODUCED_75_);
constraint array_int_element(X_INTRODUCED_35_,X_INTRODUCED_76_,X_INTRODUCED_77_):: defines_var(X_INTRODUCED_77_);
constraint int_lin_eq(X_INTRODUCED_81_,X_INTRODUCED_80_,0):: defines_var(Objective);
solve  minimize Objective;
